(set-option :produce-models true)
(set-option :smt.macro-finder true)
(set-logic ALL)

;; =====================================================================
;; 1. Algebraic / Geometric Invariants (Rigidity of the Quotient Space)
;; =====================================================================

;; Constrain the search space to a finite orbit derived from the Golay code weights.
;; This restricts potentially infinite or massive integer exploration to 5 distinct points.
(define-fun is_octad_weight ((w Int)) Bool
  (or (= w 0) (= w 8) (= w 12) (= w 16) (= w 24)))

;; Toric Semistability Condition via Logarithmic Height Function.
;; Wildly expanding paths are classified as "unstable" and filtered out instantly by this bound.
(define-fun is_semistable ((height Int)) Bool
  (<= height 8))

;; =====================================================================
;; 2. Yang-Baxter Commutative Fiber (Path Independence)
;; =====================================================================

;; Uninterpreted function representing a single step of Let-expansion / environment composition.
(declare-fun combine (Int Int) Int)

;; Commutativity and Associativity:
;; Ensures that regardless of the Let-expansion order, all paths collapse into the same fiber.
(assert (forall ((x Int) (y Int)) (= (combine x y) (combine y x))))
(assert (forall ((x Int) (y Int) (z Int)) 
  (= (combine (combine x y) z) (combine x (combine y z)))))

;; Closure property: The result of the composition must remain within the stable octad weight orbit.
(assert (forall ((x Int) (y Int))
  (=> (and (is_octad_weight x) (is_octad_weight y))
      (is_octad_weight (combine x y)))))

;; =====================================================================
;; 3. O(2^n) Let-Elimination Path (Exponential Explosion Graph vs Constraints)
;; =====================================================================

(declare-const x0 Int)
(assert (is_octad_weight x0))
;; Eliminate trivial solutions (all zeros) to look for non-trivial Hida eigenvalue actions.
(assert (> x0 0)) 

;; A nested Let-expansion of depth 5.
;; Naive expansion generates 2^5 = 32 nodes (which scales exponentially to over 10^9 nodes at n=30).
(assert
  (let ((x1 (combine x0 x0)))
  (let ((x2 (combine x1 x1)))
  (let ((x3 (combine x2 x2)))
  (let ((x4 (combine x3 x3)))
  (let ((x5 (combine x4 x4)))
    ;; The final node is compressed instantly into a single rigid modulus.
    (and (is_octad_weight x5) (is_semistable x5))
  ))))))

(check-sat)
(get-model)